100 8
591 559
410 746
276 269
828 281
598 350
102 556
785 181
642 206
754 855
673 161
197 467
414 314
667 159
642 205
689 221
393 362
382 233
492 247
371 158
390 438
242 361
580 389
285 341
464 711
778 759
154 635
258 207
583 377
498 230
741 183
750 207
303 152
450 260
682 899
730 215
570 177
435 403
461 481
637 725
305 226
111 190
434 342
433 302
156 375
558 772
481 536
274 355
96 198
710 324
767 912
71 583
245 619
250 151
641 314
637 151
373 799
776 90
334 124
644 310
161 207
654 121
479 571
333 184
564 706
209 83
592 379
655 777
532 573
608 157
368 772
511 261
579 266
321 273
475 592
775 825
191 398
625 71
332 289
583 203
789 737
299 276
242 465
677 314
601 244
500 576
796 198
332 265
269 616
268 707
252 280
624 62
636 427
628 812
651 230
719 327
508 158
471 206
666 212
306 372
321 172
